(set-info :Origin "This instance was generated by: BanditFuzz-- an RL fuzzer for SMT solvers" )
(set-info :Author "Joe Scott, Fed Mora, Vijay Ganesh" )
(set-info :Contact "Joe Scott, joseph.scott@uwaterloo.ca")
(set-logic QF_BV)
(declare-const bool_0 Bool)
(declare-const bool_1 Bool)
(declare-const bool_2 Bool)
(declare-const bool_3 Bool)
(declare-const bool_4 Bool)
(declare-const bv_0 (_ BitVec 32))
(declare-const bv_1 (_ BitVec 32))
(declare-const bv_2 (_ BitVec 32))
(declare-const bv_3 (_ BitVec 32))
(declare-const bv_4 (_ BitVec 32))
(assert (bvsle (bvnor (bvxnor bv_0 bv_3) (bvurem #x769b62c1  #x4e8c05c0 )) (bvshl (bvadd bv_4 bv_0) (bvand #xe6be515a  #xdd72fdb9 ))))
(assert (or (bvule (bvashr #x203adb03  #x8c9510cd ) (bvnand #x0909de9e  bv_3)) (bvule (bvudiv #x72010c9f  #x37d52a4d ) (bvsub #xb37ea8b6  bv_1))))
(assert (not (=> (bvsle #x18eb01f3  bv_3) (bvult bv_1 #xe8af6aae ))))
(assert (=> (=> (bvsge bv_0 bv_3) (and bool_4 bool_1)) (xor (bvule #xa35b0701  bv_4) (not bool_4))))
(assert (bvsge (bvxor (bvnand #x55d22e3f  #x6f5e3c19 ) (bvxor bv_2 #x2c77249a )) (bvmul (bvxnor #xcb5a4d3c  #xc9a5378e ) (bvmul bv_0 #x84e5430c ))))
(check-sat)
(exit)
